JulietBench/Juliet_Based_Patch_Bench/linux/CWE-189-Numeric-Errors/CVE_2011_4131_bf118a342f10dafe44b14451a1392c3254629a1f/Resultnfs4_xdr_enc_getacl_Snippet_patch2EQ.smt2
; benchmark generated from python API
(set-info :status unknown)
(declare-fun R () (_ BitVec 32))
(declare-fun rdi () (_ BitVec 64))
(assert
 (let (($x25 (= (_ bv7 32) R)))
 (let ((?x6 ((_ extract 31 0) rdi)))
 (let ((?x12 (bvadd (_ bv7 32) ?x6)))
 (let (($x16 (= R ?x12)))
 (and $x16 $x25))))))
(check-sat)
